# SP Test

[No Title]

  0  1
O 0   -0.566088    3.507927    0.429725
C 0   -0.191608    2.530078   -0.178906
O 0    0.745428    2.579090   -1.126805
C 0   -0.769832    1.169874    0.000000
C 0   -2.135859    1.177209   -0.081617
C 0   -2.811046   -0.039160   -0.129096
C 0   -2.101420   -1.235379   -0.099652
C 0   -0.699702   -1.233956   -0.031619
N 0    0.012444   -2.483134   -0.095876
C 0   -0.357785   -3.638641    0.672357
O 0   -1.241920   -3.552224    1.567542
C 0    0.314615   -4.925476    0.439761
O 0    1.254458   -5.109358   -0.468928
C 0    1.626942   -6.363741   -0.403002
C 0    2.594130   -6.997718   -1.177389
C 0    2.841901   -8.361246   -0.942844
C 0    2.122257   -9.062302    0.056007
C 0    2.369167  -10.423373    0.290531
C 0    1.654106  -11.107373    1.278460
C 0    0.688488  -10.442371    2.040008
C 0    0.427725   -9.086535    1.821752
C 0    1.138158   -8.387238    0.833101
C 0    0.922020   -7.028724    0.567634
C 0    0.060339   -6.108043    1.129276
C 0    0.000000    0.000000    0.000000
C 0    1.488787   -0.000000    0.000000
O 0    2.163596   -0.780593   -0.634161
O 0    2.011437    0.912041    0.820966
H 0    1.099497    3.482561   -1.182846
H 0   -2.716970    2.091404   -0.082819
H 0   -3.891761   -0.054499   -0.189340
H 0   -2.646668   -2.168076   -0.167116
H 0    0.864690   -2.539668   -0.697695
H 0    3.140014   -6.455906   -1.938685
H 0    3.591819   -8.868853   -1.537470
H 0    3.113266  -10.956903   -0.288713
H 0    1.849105  -12.157351    1.454685
H 0    0.140101  -10.980350    2.802507
H 0   -0.324234   -8.592572    2.423420
H 0   -0.654309   -6.264556    1.926460
H 0    2.981118    0.879640    0.762380

