# SP Test

[No Title]

  0  1
O 0   -0.566088    3.507927    0.429725
C 0   -0.191608    2.530078   -0.178906
O 0    0.745428    2.579090   -1.126805
C 0   -0.769832    1.169874    0.000000
C 0   -2.120787    1.221833    0.089578
N 0   -2.825001    2.471734    0.200922
C 0   -2.826647   -0.006053    0.110581
C 0   -4.317371   -0.058881    0.066987
O 0   -4.986201    0.900020   -0.404526
C 0   -5.017453   -1.280163    0.518251
C 0   -6.382578   -1.241878    0.833891
C 0   -7.034357   -2.392532    1.268210
C 0   -6.329729   -3.585171    1.418406
C 0   -4.953190   -3.654831    1.116589
N 0   -4.206406   -4.864031    1.385525
C 0   -4.803725   -6.185190    1.594677
C 0   -5.451036   -6.721405    0.309872
C 0   -4.428117   -6.968095   -0.811749
O 0   -3.407819   -7.857195   -0.393437
C 0   -3.768613   -9.207885   -0.625619
C 0   -3.199479   -9.689027   -1.965769
C 0   -3.406630  -11.199045   -2.144759
C 0   -2.917156  -11.660816   -3.527533
C 0   -3.081945  -13.186288   -3.740174
C 0   -3.104894  -13.498662   -5.247223
C 0   -1.950227  -13.971841   -3.030520
C 0   -2.199267  -15.480710   -3.000550
C 0   -4.302734   -2.490704    0.621951
C 0   -2.899645   -2.498265    0.138302
O 0   -2.425259   -3.541556   -0.387789
C 0   -2.116170   -1.228688    0.134769
C 0   -0.699773   -1.224570    0.106365
N 0    0.033529   -2.457582    0.203288
C 0    0.000000    0.000000    0.000000
C 0    1.488787   -0.000000    0.000000
O 0    2.163596   -0.780593   -0.634161
O 0    2.011437    0.912041    0.820966
H 0    1.099497    3.482561   -1.182846
H 0   -3.690094    2.550812    0.780279
H 0   -2.427780    3.359086   -0.179329
H 0   -6.946325   -0.321118    0.749428
H 0   -8.087846   -2.354560    1.512807
H 0   -6.867394   -4.441356    1.798023
H 0   -3.176827   -4.794976    1.551749
H 0   -4.018663   -6.895844    1.934957
H 0   -5.551604   -6.141094    2.411528
H 0   -6.217199   -6.005305   -0.055998
H 0   -5.979206   -7.669569    0.548350
H 0   -4.949103   -7.315699   -1.735402
H 0   -3.952785   -5.999422   -1.079270
H 0   -3.325135   -9.816862    0.190672
H 0   -4.869700   -9.387622   -0.588047
H 0   -3.697702   -9.140951   -2.794702
H 0   -2.111416   -9.460738   -1.998457
H 0   -2.852947  -11.730971   -1.340347
H 0   -4.489927  -11.436897   -2.043095
H 0   -3.511668  -11.109324   -4.290891
H 0   -1.851297  -11.374105   -3.669771
H 0   -4.062551  -13.499757   -3.317657
H 0   -3.335280  -14.569363   -5.425623
H 0   -2.125871  -13.253561   -5.714628
H 0   -3.899769  -12.909655   -5.753270
H 0   -1.856483  -13.635637   -1.977416
H 0   -0.975451  -13.772255   -3.528937
H 0   -2.102908  -15.919952   -4.015896
H 0   -3.208763  -15.701581   -2.590799
H 0   -1.440671  -15.964584   -2.348951
H 0    0.983778   -2.559401   -0.217498
H 0   -0.324100   -3.257794    0.771774
H 0    2.981118    0.879640    0.762380

