# SP Test

[No Title]

  0  1
O 0   -0.566088    3.507927    0.429725
C 0   -0.191608    2.530078   -0.178906
O 0    0.745428    2.579090   -1.126805
C 0   -0.769832    1.169874    0.000000
C 0   -2.140139    1.172860   -0.034367
C 0   -2.815104   -0.045219   -0.020510
C 0   -2.102167   -1.239613    0.006691
C 0   -0.702894   -1.233502   -0.010562
N 0   -0.016617   -2.494689   -0.052476
C 0    0.870912   -2.849410   -1.125722
O 0    0.894386   -2.144997   -2.172611
C 0    1.743764   -4.043824   -1.029472
C 0    2.285371   -4.619428   -2.193057
C 0    3.114204   -5.741753   -2.110020
C 0    3.425040   -6.298966   -0.864556
C 0    2.893746   -5.729282    0.299282
C 0    2.063284   -4.607682    0.219311
S 0    4.450376   -7.729476   -0.775395
O 0    4.990904   -7.886573    0.619654
O 0    5.606564   -7.555208   -1.720514
N 0    3.533942   -9.147449   -1.224305
C 0    2.292106   -9.216361   -0.430218
C 0    1.740373  -10.651154   -0.410585
O 0    2.630991  -11.610832    0.146723
C 0    3.993153  -11.208770    0.125256
C 0    4.358734  -10.371981   -1.113948
C 0    0.000000    0.000000    0.000000
C 0    1.488787   -0.000000    0.000000
O 0    2.163596   -0.780593   -0.634161
O 0    2.011437    0.912041    0.820966
H 0    1.099497    3.482561   -1.182846
H 0   -2.722404    2.086342   -0.033035
H 0   -3.897418   -0.062979   -0.026126
H 0   -2.641024   -2.179017    0.008757
H 0   -0.355666   -3.251718    0.582638
H 0    2.058885   -4.209019   -3.169302
H 0    3.510761   -6.178658   -3.017855
H 0    3.120204   -6.151273    1.269895
H 0    1.689110   -4.175630    1.137999
H 0    2.462136   -8.890634    0.620940
H 0    1.533120   -8.542918   -0.882869
H 0    1.484714  -10.958623   -1.447627
H 0    0.799312  -10.661867    0.178684
H 0    4.627296  -12.120107    0.137479
H 0    4.224197  -10.635803    1.049379
H 0    5.447327  -10.144881   -1.094681
H 0    4.183622  -10.992014   -2.019009
H 0    2.981118    0.879640    0.762380

