%mem=16GB
%chk=anthraquinone-nama.chk
#p opt=(TS, GDIIS, calcfc, noeigen) freq rB3LYP/6-311G(d,p) Extrabasis SCRF=(IEFPCM, solvent=water) IOp(1/8=2)

Transition state for phthalic acid

0 1
 C                  1.28214400    2.12641000   -1.26247000
 C                  1.41599500    3.63894600   -1.36156100
 C                  0.17413900    4.31296300   -0.76927800
 C                 -0.21269400    2.46374000    0.71475600
 C                  1.01544600    1.69293100    0.17740000
 H                  2.29007800    3.96309900   -0.77903800
 H                  0.43669900    1.81631900   -1.89026600
 H                 -1.09559600    2.17739000    0.12603700
 H                  1.88027600    1.91983700    0.80276300
 H                 -0.71189600    4.07193500   -1.36929400
 O                  1.58838200    3.93437100   -2.74073400
 H                  1.76966600    4.87762600   -2.82604500
 O                  0.27686700    5.70310500   -0.77442100
 H                  1.03246600    5.95050900   -0.22438500
 O                  0.01230900    3.87278100    0.57264300
 C                 -0.50451100    2.20773500    2.19034000
 H                 -0.38720800    1.14611500    2.41974300
 H                  0.22287400    2.76583000    2.78498400
 O                 -1.79782000    2.65948000    2.56846400
 H                 -2.42529400    1.97849800    2.28345000
 O                  2.46946500    1.47713900   -1.74601800
 H                  2.69262700    1.90465700   -2.58624400
 O                  0.85102200    0.26975500    0.23256500
 C                  1.92903600   -1.02430900    1.49669600
 C                  0.95594200   -2.18182600    1.47805700
 C                  1.64667700   -3.47209200    1.05400800
 C                  2.45890400   -3.21001600   -0.20720700
 C                  3.56590400   -2.20526600    0.12170900
 H                  1.85826500   -0.24658100    2.24958200
 H                  2.32417300   -3.80628300    1.85148100
 H                  1.81488600   -2.80629100   -0.99931200
 H                  4.31018100   -2.68603700    0.75891100
 H                  0.16773000   -1.97432400    0.74782900
 O                  0.40754900   -2.26950900    2.78811900
 H                 -0.07599700   -3.10651500    2.82717300
 O                  0.61062400   -4.41641400    0.85551600
 H                  1.02253500   -5.24985100    0.59668800
 O                  3.03977000   -4.44455300   -0.59566200
 H                  3.65953500   -4.24443100   -1.31479900
 C                  4.24602300   -1.58532100   -1.09184500
 H                  4.99231700   -0.85556100   -0.76617900
 H                  3.50225700   -1.08836600   -1.71568500
 O                  4.84620900   -2.68705500   -1.78202300
 H                  5.06582700   -2.40374900   -2.67579600
 O                  3.07815700   -1.07439900    0.95443700
 O                 -1.57368800   -0.56850500   -0.18791800
 H                 -0.06967100   -0.02672600   -0.03541300
 C                 -2.18248100   -0.82152800   -1.30118100
 C                 -3.69519600   -1.01743800   -1.26500700
 O                 -1.59508300   -0.94686200   -2.37859700
 C                 -4.61739700   -0.58368200   -0.27138800
 C                 -5.97874200   -0.87134600   -0.45634100
 C                 -4.19654800   -1.71015300   -2.37648600
 C                 -6.44639400   -1.57982900   -1.55393900
 C                 -5.54529800   -2.00357300   -2.52506700
 H                 -6.67030800   -0.51639700    0.29511200
 H                 -3.48740300   -2.01470600   -3.13357000
 O                  1.19126500   -1.10848100   -2.74039400
 H                  1.56713500   -0.30453800   -2.35695800
 H                  0.23090600   -1.03982400   -2.57558200
 O                 -1.67230000   -0.55734900    3.94388100
 H                 -2.43001500   -0.15588200    0.80747500
 H                 -0.97867700   -1.07748500    3.51145500
 H                 -2.29676000   -0.35442000    3.23479500
 O                  4.65979900    1.66555900    0.11996400
 H                  3.97647300    1.61118400   -0.57272800
 H                  5.14448600    2.47756700   -0.06422300
 O                  3.38852800    1.40558400    2.60761700
 H                  3.90954400    1.51280400    1.78612800
 H                  3.25541700    2.30239400    2.93152500
 C                 -4.35877600    0.20909100    1.00067700
 O                 -3.11672400    0.27394700    1.47579700
 O                 -5.26675600    0.75082800    1.59713000
 C                 -7.95041395   -1.88152781   -1.68996043
 C                 -8.42218824   -2.59352850   -2.79255091
 C                 -9.78466753   -2.86749315   -2.91529040
 C                 -6.03020967   -2.78532612   -3.76010656
 C                 -7.38650368   -3.07519758   -3.91391697
 C                 -7.82568333   -3.78353366   -5.03236154
 C                 -9.32240524   -4.10364500   -5.20251514
 C                -10.23943210   -3.68463919   -4.23778077
 O                 -8.78133157   -1.47174989   -0.77615539
 O                 -5.17544753   -3.17531915   -4.66047805
 H                -10.67526405   -2.42871826   -1.93556464
 H                -11.18574276   -3.88722442   -4.34523796
 H                 -9.62901113   -4.59811919   -5.98327106
 H                 -7.18592716   -4.07589418   -5.70565870

46 50 72 73 0
SP   1   1.00
      0.0845000              1.0000000              1.0000000
****

