# SP Test

[No Title]

  0  1
C 0   -1.436912   -2.049853   -1.255266
C 0   -1.677937   -3.550875   -1.337918
C 0   -0.465556   -4.306820   -0.785067
C 0    0.112811   -2.475274    0.660173
C 0   -1.084097   -1.628312    0.169199
O 0   -1.917370   -3.838158   -2.708404
O 0   -0.666267   -5.685511   -0.767061
O 0   -0.221131   -3.864471    0.544416
C 0    0.493753   -2.238096    2.119374
O 0    1.782786   -2.755804    2.422821
O 0   -2.594529   -1.323406   -1.696100
O 0   -0.821555   -0.212266    0.194186
H 0   -0.597475   -1.803709   -1.918018
H 0   -2.552073   -3.811133   -0.724132
H 0    0.411548   -4.135989   -1.420955
H 0    0.984738   -2.260470    0.026760
H 0   -1.933248   -1.788713    0.835179
H 0   -2.169916   -4.765863   -2.782377
H 0   -1.416639   -5.873584   -0.187136
H 0    0.440861   -1.175452    2.366943
H 0   -0.228186   -2.765514    2.747635
H 0    2.428459   -2.076938    2.178233
H 0   -2.868301   -1.725669   -2.533876
H 0    0.135422    0.023158   -0.028028
C 0   -1.781641    1.038836    1.430563
C 0   -0.811378    2.202771    1.385676
C 0   -1.533731    3.504847    1.062837
C 0   -2.407507    3.292673   -0.165011
C 0   -3.488458    2.262461    0.172038
O 0   -0.167107    2.251033    2.652275
O 0   -0.514808    4.466220    0.854071
O 0   -3.015760    4.537969   -0.469433
C 0   -4.214524    1.689487   -1.037728
O 0   -4.854264    2.814679   -1.651468
O 0   -2.966301    1.112380    0.949757
H 0   -1.705542    0.299026    2.219702
H 0   -0.078359    2.032415    0.591487
H 0   -2.169020    3.796706    1.909772
H 0   -1.799115    2.933236   -1.004924
H 0   -4.211165    2.718832    0.850961
H 0    0.329466    3.080979    2.675878
H 0   -0.944496    5.306102    0.651157
H 0   -3.669006    4.362797   -1.165091
H 0   -4.940970    0.939768   -0.712776
H 0   -3.496124    1.227018   -1.715910
H 0   -5.119717    2.566207   -2.543071
O 0    1.654943    0.445280   -0.162977
C 0    2.249281    0.700825   -1.283915
C 0    3.761656    0.886136   -1.271894
O 0    1.638730    0.834137   -2.349480
C 0    4.696346    0.444043   -0.292603
C 0    6.056180    0.727239   -0.495336
C 0    4.250585    1.580603   -2.387708
C 0    6.511100    1.437276   -1.597599
C 0    5.598667    1.868358   -2.554142
C 0    4.446487   -0.340898    0.984022
O 0    3.219623   -0.372508    1.493580
O 0    5.357532   -0.907380    1.559641
H 0    6.759390    0.373130    0.245558
H 0    3.533667    1.896360   -3.132737
H 0    7.568602    1.646198   -1.706810
H 0    5.930049    2.420669   -3.425499
H 0    2.522601    0.041122    0.824486
O 0   -1.131122    1.189562   -2.750291
H 0   -1.551699    0.417185   -2.349245
H 0   -0.179118    1.073484   -2.570822
O 0    1.778722    0.492917    3.931683
H 0    1.127009    1.023602    3.448624
H 0    2.458119    0.292967    3.274736
O 0   -4.738876   -1.514764    0.233440
H 0   -4.081624   -1.460710   -0.483522
H 0   -5.258675   -2.303873    0.045649
O 0   -3.342547   -1.317445    2.662401
H 0   -3.911443   -1.394251    1.870295
H 0   -3.244384   -2.221390    2.979267

