%mem=16GB
%chk=phthalicacid_ts.chk
#p opt=(TS, GDIIS, calcfc, noeigen) freq rB3LYP/6-311G(d,p) SCRF=(IEFPCM, solvent=water) IOp(1/8=2)

Transition state for phthalic acid

0 1
C                 -1.43691200   -2.04985300   -1.25526600
C                 -1.67793700   -3.55087500   -1.33791800
C                 -0.46555600   -4.30682000   -0.78506700
C                  0.11281100   -2.47527400    0.66017300
C                 -1.08409700   -1.62831200    0.16919900
H                 -2.55207300   -3.81113300   -0.72413200
H                 -0.59747500   -1.80370900   -1.91801800
H                  0.98473800   -2.26047000    0.02676000
H                 -1.93324800   -1.78871300    0.83517900
H                  0.41154800   -4.13598900   -1.42095500
O                 -1.91737000   -3.83815800   -2.70840400
H                 -2.16991600   -4.76586300   -2.78237700
O                 -0.66626700   -5.68551100   -0.76706100
H                 -1.41663900   -5.87358400   -0.18713600
O                 -0.22113100   -3.86447100    0.54441600
C                  0.49375300   -2.23809600    2.11937400
H                  0.44086100   -1.17545200    2.36694300
H                 -0.22818600   -2.76551400    2.74763500
O                  1.78278600   -2.75580400    2.42282100
H                  2.42845900   -2.07693800    2.17823300
O                 -2.59452900   -1.32340600   -1.69610000
H                 -2.86830100   -1.72566900   -2.53387600
O                 -0.82155500   -0.21226600    0.19418600
C                 -1.78164100    1.03883600    1.43056300
C                 -0.81137800    2.20277100    1.38567600
C                 -1.53373100    3.50484700    1.06283700
C                 -2.40750700    3.29267300   -0.16501100
C                 -3.48845800    2.26246100    0.17203800
H                 -1.70554200    0.29902600    2.21970200
H                 -2.16902000    3.79670600    1.90977200
H                 -1.79911500    2.93323600   -1.00492400
H                 -4.21116500    2.71883200    0.85096100
H                 -0.07835900    2.03241500    0.59148700
O                 -0.16710700    2.25103300    2.65227500
H                  0.32946600    3.08097900    2.67587800
O                 -0.51480800    4.46622000    0.85407100
H                 -0.94449600    5.30610200    0.65115700
O                 -3.01576000    4.53796900   -0.46943300
H                 -3.66900600    4.36279700   -1.16509100
C                 -4.21452400    1.68948700   -1.03772800
H                 -4.94097000    0.93976800   -0.71277600
H                 -3.49612400    1.22701800   -1.71591000
O                 -4.85426400    2.81467900   -1.65146800
H                 -5.11971700    2.56620700   -2.54307100
O                 -2.96630100    1.11238000    0.94975700
O                  1.65494300    0.44528000   -0.16297700
H                  0.13542200    0.02315800   -0.02802800
C                  2.24928100    0.70082500   -1.28391500
C                  3.76165600    0.88613600   -1.27189400
O                  1.63873000    0.83413700   -2.34948000
C                  4.69634600    0.44404300   -0.29260300
C                  6.05618000    0.72723900   -0.49533600
C                  4.25058500    1.58060300   -2.38770800
C                  6.51110000    1.43727600   -1.59759900
H                  7.56860200    1.64619800   -1.70681000
C                  5.59866700    1.86835800   -2.55414200
H                  5.93004900    2.42066900   -3.42549900
H                  6.75939000    0.37313000    0.24555800
H                  3.53366700    1.89636000   -3.13273700
O                 -1.13112200    1.18956200   -2.75029100
H                 -1.55169900    0.41718500   -2.34924500
H                 -0.17911800    1.07348400   -2.57082200
O                  1.77872200    0.49291700    3.93168300
H                  2.52260100    0.04112200    0.82448600
H                  1.12700900    1.02360200    3.44862400
H                  2.45811900    0.29296700    3.27473600
O                 -4.73887600   -1.51476400    0.23344000
H                 -4.08162400   -1.46071000   -0.48352200
H                 -5.25867500   -2.30387300    0.04564900
O                 -3.34254700   -1.31744500    2.66240100
H                 -3.91144300   -1.39425100    1.87029500
H                 -3.24438400   -2.22139000    2.97926700
C                  4.44648700   -0.34089800    0.98402200
O                  3.21962300   -0.37250800    1.49358000
O                  5.35753200   -0.90738000    1.55964100
