 Entering Gaussian System, Link 0=g16
 Input=phthalicacid_ts.gjf
 Output=phthalicacid_ts.log
 Initial command:
 /apps/t4/rhel9/isv/gaussian/G16C02/g16/l1.exe "/local/6604561/Gau-1443787.inp" -scrdir="/local/6604561/"
 Default CPUs for threads: 8-23
 Default is to use a total of  16 processors:
                               16 via shared-memory
                                1 via Linda
 Entering Link 1 = /apps/t4/rhel9/isv/gaussian/G16C02/g16/l1.exe PID=   1443806.
  
 Copyright (c) 1988-2021, Gaussian, Inc.  All Rights Reserved.
  
 This is part of the Gaussian(R) 16 program.  It is based on
 the Gaussian(R) 09 system (copyright 2009, Gaussian, Inc.),
 the Gaussian(R) 03 system (copyright 2003, Gaussian, Inc.),
 the Gaussian(R) 98 system (copyright 1998, Gaussian, Inc.),
 the Gaussian(R) 94 system (copyright 1995, Gaussian, Inc.),
 the Gaussian 92(TM) system (copyright 1992, Gaussian, Inc.),
 the Gaussian 90(TM) system (copyright 1990, Gaussian, Inc.),
 the Gaussian 88(TM) system (copyright 1988, Gaussian, Inc.),
 the Gaussian 86(TM) system (copyright 1986, Carnegie Mellon
 University), and the Gaussian 82(TM) system (copyright 1983,
 Carnegie Mellon University). Gaussian is a federally registered
 trademark of Gaussian, Inc.
  
 This software contains proprietary and confidential information,
 including trade secrets, belonging to Gaussian, Inc.
  
 This software is provided under written license and may be
 used, copied, transmitted, or stored only in accord with that
 written license.
  
 The following legend is applicable only to US Government
 contracts under FAR:
  
                    RESTRICTED RIGHTS LEGEND
  
 Use, reproduction and disclosure by the US Government is
 subject to restrictions as set forth in subparagraphs (a)
 and (c) of the Commercial Computer Software - Restricted
 Rights clause in FAR 52.227-19.
  
 Gaussian, Inc.
 340 Quinnipiac St., Bldg. 40, Wallingford CT 06492
  
  
 ---------------------------------------------------------------
 Warning -- This program may not be used in any manner that
 competes with the business of Gaussian, Inc. or will provide
 assistance to any competitor of Gaussian, Inc.  The licensee
 of this program is prohibited from giving any competitor of
 Gaussian, Inc. access to this program.  By using this program,
 the user acknowledges that Gaussian, Inc. is engaged in the
 business of creating and licensing software in the field of
 computational chemistry and represents and warrants to the
 licensee that it is not a competitor of Gaussian, Inc. and that
 it will not use this program in any manner prohibited above.
 ---------------------------------------------------------------
  

 Cite this work as:
 Gaussian 16, Revision C.02,
 M. J. Frisch, G. W. Trucks, H. B. Schlegel, G. E. Scuseria, 
 M. A. Robb, J. R. Cheeseman, G. Scalmani, V. Barone, 
 G. A. Petersson, H. Nakatsuji, X. Li, M. Caricato, A. V. Marenich, 
 J. Bloino, B. G. Janesko, R. Gomperts, B. Mennucci, H. P. Hratchian, 
 J. V. Ortiz, A. F. Izmaylov, J. L. Sonnenberg, D. Williams-Young, 
 F. Ding, F. Lipparini, F. Egidi, J. Goings, B. Peng, A. Petrone, 
 T. Henderson, D. Ranasinghe, V. G. Zakrzewski, J. Gao, N. Rega, 
 G. Zheng, W. Liang, M. Hada, M. Ehara, K. Toyota, R. Fukuda, 
 J. Hasegawa, M. Ishida, T. Nakajima, Y. Honda, O. Kitao, H. Nakai, 
 T. Vreven, K. Throssell, J. A. Montgomery, Jr., J. E. Peralta, 
 F. Ogliaro, M. J. Bearpark, J. J. Heyd, E. N. Brothers, K. N. Kudin, 
 V. N. Staroverov, T. A. Keith, R. Kobayashi, J. Normand, 
 K. Raghavachari, A. P. Rendell, J. C. Burant, S. S. Iyengar, 
 J. Tomasi, M. Cossi, J. M. Millam, M. Klene, C. Adamo, R. Cammi, 
 J. W. Ochterski, R. L. Martin, K. Morokuma, O. Farkas, 
 J. B. Foresman, and D. J. Fox, Gaussian, Inc., Wallingford CT, 2019.
 
 ******************************************
 Gaussian 16:  ES64L-G16RevC.02  7-Dec-2021
                12-Feb-2026 
 ******************************************
 %mem=16GB
 %chk=phthalicacid_ts.chk
 SetSPE:  set environment variable "OMP_PROC_BIND" = "true"
 SetSPE:  set environment variable "OMP_PLACES" = "{8},{9},{10},{11},{12},{13},{14},{15},{16},{17},{18},{19},{20},{21},{22},{23}"
 ----------------------------------------------------------------------
 #p opt=(TS, GDIIS, calcfc, noeigen) freq rB3LYP/6-311G(d,p) SCRF=(IEFP
 CM, solvent=water) IOp(1/8=2)
 ----------------------------------------------------------------------

 Warning!  Use of Opt=GDIIS is deprecated since it is seldom a good choice.

 1/5=1,8=2,10=4,11=1,18=20,19=11,26=3,38=1/1,3;
 2/9=110,12=2,17=6,18=5,40=1/2;
 3/5=4,6=6,7=101,11=2,25=1,30=1,70=2201,71=2,72=1,74=-5,116=1,140=1/1,2,3;
 4//1;
 5/5=2,38=5,53=1/2;
 8/6=4,10=90,11=11/1;
 11/6=1,8=1,9=11,15=111,16=1/1,2,10;
 10/6=1,13=1/2;
 6/7=2,8=2,9=2,10=2,28=1/1;
 7/10=1,25=1/1,2,3,16;
 1/5=1,8=2,10=4,11=1,18=20,19=11,26=3/3(2);
 2/9=110/2;
 99//99;
 2/9=110/2;
 3/5=4,6=6,7=101,11=2,25=1,30=1,70=2205,71=1,72=1,74=-5,116=1/1,2,3;
 4/5=5,16=3,69=1/1;
 5/5=2,38=5,53=1/2;
 7//1,2,3,16;
 1/5=1,8=2,11=1,18=20,19=11,26=3/3(-5);
 2/9=110/2;
 6/7=2,8=2,9=2,10=2,19=2,28=1/1;
 99/9=1/99;
 Leave Link    1 at Thu Feb 12 04:06:02 2026, MaxMem=  2147483648 cpu:               0.1 elap:               0.1
 (Enter /apps/t4/rhel9/isv/gaussian/G16C02/g16/l101.exe)
 ----------------------------------
 Transition state for phthalic acid
 ----------------------------------
 Symbolic Z-matrix:
 Charge =  0 Multiplicity = 1
 C                    -1.43691  -2.04985  -1.25527 
 C                    -1.67794  -3.55088  -1.33792 
 C                    -0.46556  -4.30682  -0.78507 
 C                     0.11281  -2.47527   0.66017 
 C                    -1.0841   -1.62831   0.1692 
 H                    -2.55207  -3.81113  -0.72413 
 H                    -0.59748  -1.80371  -1.91802 
 H                     0.98474  -2.26047   0.02676 
 H                    -1.93325  -1.78871   0.83518 
 H                     0.41155  -4.13599  -1.42096 
 O                    -1.91737  -3.83816  -2.7084 
 H                    -2.16992  -4.76586  -2.78238 
 O                    -0.66627  -5.68551  -0.76706 
 H                    -1.41664  -5.87358  -0.18714 
 O                    -0.22113  -3.86447   0.54442 
 C                     0.49375  -2.2381    2.11937 
 H                     0.44086  -1.17545   2.36694 
 H                    -0.22819  -2.76551   2.74764 
 O                     1.78279  -2.7558    2.42282 
 H                     2.42846  -2.07694   2.17823 
 O                    -2.59453  -1.32341  -1.6961 
 H                    -2.8683   -1.72567  -2.53388 
 O                    -0.82156  -0.21227   0.19419 
 C                    -1.78164   1.03884   1.43056 
 C                    -0.81138   2.20277   1.38568 
 C                    -1.53373   3.50485   1.06284 
 C                    -2.40751   3.29267  -0.16501 
 C                    -3.48846   2.26246   0.17204 
 H                    -1.70554   0.29903   2.2197 
 H                    -2.16902   3.79671   1.90977 
 H                    -1.79912   2.93324  -1.00492 
 H                    -4.21117   2.71883   0.85096 
 H                    -0.07836   2.03241   0.59149 
 O                    -0.16711   2.25103   2.65228 
 H                     0.32947   3.08098   2.67588 
 O                    -0.51481   4.46622   0.85407 
 H                    -0.9445    5.3061    0.65116 
 O                    -3.01576   4.53797  -0.46943 
 H                    -3.66901   4.3628   -1.16509 
 C                    -4.21452   1.68949  -1.03773 
 H                    -4.94097   0.93977  -0.71278 
 H                    -3.49612   1.22702  -1.71591 
 O                    -4.85426   2.81468  -1.65147 
 H                    -5.11972   2.56621  -2.54307 
 O                    -2.9663    1.11238   0.94976 
 O                     1.65494   0.44528  -0.16298 
 H                     0.13542   0.02316  -0.02803 
 C                     2.24928   0.70083  -1.28392 
 C                     3.76166   0.88614  -1.27189 
 O                     1.63873   0.83414  -2.34948 
 C                     4.69635   0.44404  -0.2926 
 C                     6.05618   0.72724  -0.49534 
 C                     4.25059   1.5806   -2.38771 
 C                     6.5111    1.43728  -1.5976 
 H                     7.5686    1.6462   -1.70681 
 C                     5.59867   1.86836  -2.55414 
 H                     5.93005   2.42067  -3.4255 
 H                     6.75939   0.37313   0.24556 
 H                     3.53367   1.89636  -3.13274 
 O                    -1.13112   1.18956  -2.75029 
 H                    -1.5517    0.41719  -2.34925 
 H                    -0.17912   1.07348  -2.57082 
 O                     1.77872   0.49292   3.93168 
 H                     2.5226    0.04112   0.82449 
 H                     1.12701   1.0236    3.44862 
 H                     2.45812   0.29297   3.27474 
 O                    -4.73888  -1.51476   0.23344 
 H                    -4.08162  -1.46071  -0.48352 
 H                    -5.25868  -2.30387   0.04565 
 O                    -3.34255  -1.31745   2.6624 
 H                    -3.91144  -1.39425   1.8703 
 H                    -3.24438  -2.22139   2.97927 
 C                     4.44649  -0.3409    0.98402 
 O                     3.21962  -0.37251   1.49358 
 O                     5.35753  -0.90738   1.55964 
 End of file in ZSymb.
 Error termination via Lnk1e in /apps/t4/rhel9/isv/gaussian/G16C02/g16/l101.exe at Thu Feb 12 04:06:03 2026.
 Job cpu time:       0 days  0 hours  0 minutes  0.2 seconds.
 Elapsed time:       0 days  0 hours  0 minutes  0.5 seconds.
 File lengths (MBytes):  RWF=      6 Int=      0 D2E=      0 Chk=      1 Scr=      1
